20
0 7
0 4
0 1
0 5
0 8
0 2
0 15
0 12
0 3
0 13
7 6
7 19
7 2
7 11
7 14
7 1
7 16
7 10
7 9
13 17
13 6
13 12
13 16
13 19
13 2
13 11
13 3
13 1
17 2
17 18
17 3
17 5
17 4
17 6
17 9
17 15
17 11
1 6
1 11
1 5
1 10
1 3
1 4
1 2
6 10
6 2
6 14
6 11
6 4
6 5
11 15
11 4
11 19
11 8
11 12
5 8
5 18
5 16
5 9
5 19
5 12
8 15
8 12
8 18
8 9
8 4
8 19
8 16
10 18
10 14
10 19
10 15
10 12
10 2
10 9
18 14
18 2
18 12
18 9
18 15
18 16
14 9
14 19
14 12
14 16
14 3
14 4
19 15
19 12
19 3
4 16
4 15
4 3
15 3
15 2
2 9
9 16
9 3
16 3
16 12
